c uprop, v00.0, 
c reading from data/prog348.c.cnf
c done reading: 0.00242
p cnf 166 704
-92 -97 0
-90 -92 0
90 92 97 0
-82 90 97 0
-82 -90 -97 0
82 90 -97 0
82 -90 97 0
-78 92 0
-76 -78 0
76 78 -92 0
-69 76 -92 0
-69 -76 92 0
69 76 92 0
69 -76 -92 0
-64 78 0
64 -78 0
-59 -78 0
59 78 0
-56 64 0
56 -64 0
-64 -94 0
64 94 0
56 -87 0
-56 87 0
-56 -73 0
56 73 0
87 -99 0
-87 99 0
-87 -101 0
87 101 0
99 -103 0
-99 103 0
-99 -105 0
99 105 0
76 -107 0
97 -107 0
-76 -97 107 0
-76 -97 -109 0
76 97 -109 0
-76 97 109 0
76 -97 109 0
-90 -107 111 0
90 -111 0
107 -111 0
90 107 -111 0
-111 -113 0
90 -111 -113 0
107 -111 -113 0
-90 111 113 0
-107 111 113 0
90 107 -113 0
-76 -111 115 0
76 -115 0
111 -115 0
76 111 -115 0
-115 -118 0
76 -115 -118 0
111 -115 -118 0
-76 115 118 0
-111 115 118 0
76 111 -118 0
-115 121 0
115 -121 0
-85 113 0
-85 97 0
85 -97 -113 0
-81 -97 -113 0
-81 97 113 0
81 97 -113 0
81 -97 113 0
72 -90 -118 0
72 -85 -118 0
72 -85 -90 0
-72 90 118 0
-72 85 118 0
-72 85 90 0
-67 -72 118 0
-67 -72 90 0
-67 -72 85 0
67 72 -118 0
67 72 -90 0
67 72 -85 0
67 -85 -90 -118 0
-67 85 90 118 0
62 -76 -121 0
62 -72 -121 0
62 -72 -76 0
-62 76 121 0
-62 72 121 0
-62 72 76 0
-54 -62 121 0
-54 -62 76 0
-54 -62 72 0
54 62 -121 0
54 62 -76 0
54 62 -72 0
54 -72 -76 -121 0
-54 72 76 121 0
53 -62 0
-53 62 0
-52 67 0
-52 97 0
52 -67 -97 0
-51 -67 -97 0
-51 67 97 0
51 -67 97 0
51 67 -97 0
50 -54 -90 0
50 -52 -54 0
50 -52 -90 0
-50 54 90 0
-50 52 54 0
-50 52 90 0
-49 -50 54 0
-49 -50 90 0
-49 -50 52 0
49 50 -54 0
49 50 -90 0
49 50 -52 0
49 -52 -54 -90 0
-49 52 54 90 0
48 -53 -76 0
48 -50 -53 0
48 -50 -76 0
-48 53 76 0
-48 50 53 0
-48 50 76 0
-47 -48 53 0
-47 -48 76 0
-47 -48 50 0
47 48 -53 0
47 48 -76 0
47 48 -50 0
47 -50 -53 -76 0
-47 50 53 76 0
46 -48 0
-46 48 0
49 -68 0
-68 97 0
-49 68 -97 0
-49 -63 -97 0
49 -63 97 0
-49 63 97 0
49 63 -97 0
-47 58 -90 0
-47 58 -68 0
58 -68 -90 0
47 -58 90 0
47 -58 68 0
-58 68 90 0
47 -55 -58 0
-55 -58 90 0
-55 -58 68 0
-47 55 58 0
55 58 -90 0
55 58 -68 0
-47 55 -68 -90 0
47 -55 68 90 0
-46 -76 0
-46 -58 0
-58 -76 0
-46 86 0
-76 86 0
-58 86 0
-46 -58 -76 86 0
46 58 76 -86 0
-97 -117 0
-90 -117 0
90 97 117 0
-45 90 97 0
-45 -90 -97 0
45 90 -97 0
45 -90 97 0
117 -120 0
-109 -120 0
109 -117 120 0
-44 109 -117 0
-44 -109 117 0
44 109 117 0
44 -109 -117 0
-43 120 0
-43 -81 0
43 81 -120 0
-42 81 -120 0
-42 -81 120 0
42 81 120 0
42 -81 -120 0
-41 43 0
-41 -51 0
41 -43 51 0
-40 -43 51 0
-40 43 -51 0
40 43 51 0
40 -43 -51 0
41 -96 0
-63 -96 0
-41 63 96 0
-41 63 -89 0
41 -63 -89 0
41 63 89 0
-41 -63 89 0
-75 96 0
-55 -75 0
55 75 -96 0
55 -84 -96 0
-55 -84 96 0
55 84 96 0
-55 84 -96 0
75 -80 0
-80 -86 0
-75 80 86 0
-71 -75 86 0
-71 75 -86 0
71 75 86 0
71 -75 -86 0
-66 80 0
66 -80 0
-61 -80 0
61 80 0
66 -123 0
-66 123 0
-66 -98 0
66 98 0
-91 123 0
91 -123 0
-77 -123 0
77 123 0
91 -124 0
-91 124 0
-91 -125 0
91 125 0
124 -126 0
-124 126 0
-124 -127 0
124 127 0
126 -128 0
-126 128 0
-126 -129 0
126 129 0
-130 -131 0
-131 -132 0
130 131 132 0
130 132 -133 0
-130 -132 -133 0
-130 132 133 0
130 -132 133 0
131 -135 0
-134 -135 0
-131 134 135 0
-131 134 -137 0
131 -134 -137 0
131 134 137 0
-131 -134 137 0
135 -139 0
-136 -139 0
-135 136 139 0
-135 136 -141 0
135 -136 -141 0
135 136 141 0
-135 -136 141 0
139 -143 0
-138 -143 0
138 -139 143 0
138 -139 -145 0
-138 139 -145 0
138 139 145 0
-138 -139 145 0
143 -146 0
-140 -146 0
140 -143 146 0
140 -143 -147 0
-140 143 -147 0
140 143 147 0
-140 -143 147 0
146 -148 0
-142 -148 0
142 -146 148 0
142 -146 -149 0
-142 146 -149 0
142 146 149 0
-142 -146 149 0
148 -150 0
-144 -150 0
144 -148 150 0
144 -148 -151 0
-144 148 -151 0
144 148 151 0
-144 -148 151 0
132 -152 0
130 -152 0
-130 -132 152 0
-130 -132 -153 0
130 132 -153 0
130 -132 153 0
-130 132 153 0
-132 -134 154 0
-134 -152 154 0
-132 -152 154 0
132 134 -154 0
134 152 -154 0
132 152 -154 0
134 -154 -155 0
132 -154 -155 0
152 -154 -155 0
-134 154 155 0
-132 154 155 0
-152 154 155 0
-132 -134 -152 155 0
132 134 152 -155 0
-134 -136 156 0
-136 -154 156 0
-134 -154 156 0
134 136 -156 0
136 154 -156 0
134 154 -156 0
136 -156 -157 0
134 -156 -157 0
154 -156 -157 0
-136 156 157 0
-134 156 157 0
-154 156 157 0
-134 -136 -154 157 0
134 136 154 -157 0
-136 -138 158 0
-138 -156 158 0
-136 -156 158 0
136 138 -158 0
138 156 -158 0
136 156 -158 0
138 -158 -159 0
136 -158 -159 0
156 -158 -159 0
-138 158 159 0
-136 158 159 0
-156 158 159 0
-136 -138 -156 159 0
136 138 156 -159 0
-138 -140 160 0
-140 -158 160 0
-138 -158 160 0
138 140 -160 0
140 158 -160 0
138 158 -160 0
-93 140 -160 0
-93 138 -160 0
-93 158 -160 0
93 -140 160 0
93 -138 160 0
93 -158 160 0
93 -138 -140 -158 0
-93 138 140 158 0
83 -140 -142 0
83 -142 -160 0
83 -140 -160 0
-83 140 142 0
-83 142 160 0
-83 140 160 0
-79 -83 142 0
-79 -83 140 0
-79 -83 160 0
79 83 -142 0
79 83 -140 0
79 83 -160 0
79 -140 -142 -160 0
-79 140 142 160 0
70 -142 -144 0
70 -83 -144 0
70 -83 -142 0
-70 142 144 0
-70 83 144 0
-70 83 142 0
-65 -70 144 0
-65 -70 142 0
-65 -70 83 0
65 70 -144 0
65 70 -142 0
65 70 -83 0
65 -83 -142 -144 0
-65 83 142 144 0
-60 144 0
-60 70 0
60 -70 -144 0
-57 -70 -144 0
-57 70 144 0
57 70 -144 0
57 -70 144 0
-95 157 0
-95 130 0
95 -130 -157 0
-88 -130 -157 0
-88 130 157 0
88 130 -157 0
88 -130 157 0
74 -132 -159 0
74 -95 -159 0
74 -95 -132 0
-74 132 159 0
-74 95 159 0
-74 95 132 0
-74 -100 159 0
-74 -100 132 0
-74 95 -100 0
74 100 -159 0
74 100 -132 0
74 -95 100 0
-95 100 -132 -159 0
95 -100 132 159 0
-93 102 -134 0
-74 -93 102 0
-74 102 -134 0
93 -102 134 0
74 93 -102 0
74 -102 134 0
93 -102 -104 0
-102 -104 134 0
74 -102 -104 0
-93 102 104 0
102 104 -134 0
-74 102 104 0
-74 -93 104 -134 0
74 93 -104 134 0
-79 106 -136 0
-79 -102 106 0
-102 106 -136 0
79 -106 136 0
79 102 -106 0
102 -106 136 0
79 -106 -108 0
-106 -108 136 0
102 -106 -108 0
-79 106 108 0
106 108 -136 0
-102 106 108 0
-79 -102 108 -136 0
79 102 -108 136 0
-65 110 -138 0
-65 -106 110 0
-106 110 -138 0
65 -110 138 0
65 106 -110 0
106 -110 138 0
65 -110 -112 0
-110 -112 138 0
106 -110 -112 0
-65 110 112 0
110 112 -138 0
-106 110 112 0
-65 -106 112 -138 0
65 106 -112 138 0
-57 114 -140 0
-57 -110 114 0
-110 114 -140 0
57 -114 140 0
57 110 -114 0
110 -114 140 0
57 -114 -116 0
-114 -116 140 0
110 -114 -116 0
-57 114 116 0
114 116 -140 0
-110 114 116 0
-57 -110 116 -140 0
57 110 -116 140 0
-60 119 -142 0
-60 -114 119 0
-114 119 -142 0
60 -119 142 0
60 114 -119 0
114 -119 142 0
60 -119 -161 0
-119 142 -161 0
114 -119 -161 0
-60 119 161 0
119 -142 161 0
-114 119 161 0
-60 -114 -142 161 0
60 114 142 -161 0
-122 144 0
119 -122 0
-119 122 -144 0
-119 -144 -162 0
119 144 -162 0
119 -144 162 0
-119 144 162 0
104 -163 0
130 -163 0
-104 -130 163 0
-104 -130 -164 0
104 130 -164 0
-104 130 164 0
104 -130 164 0
-108 -132 165 0
-108 -163 165 0
-132 -163 165 0
108 132 -165 0
108 163 -165 0
132 163 -165 0
108 -165 -166 0
132 -165 -166 0
163 -165 -166 0
-108 165 166 0
-132 165 166 0
-163 165 166 0
-108 -132 -163 166 0
108 132 163 -166 0
39 -112 -134 0
39 -112 -165 0
39 -134 -165 0
-39 112 134 0
-39 112 165 0
-39 134 165 0
-38 -39 112 0
-38 -39 134 0
-38 -39 165 0
38 39 -112 0
38 39 -134 0
38 39 -165 0
38 -112 -134 -165 0
-38 112 134 165 0
37 -116 -136 0
37 -39 -116 0
37 -39 -136 0
-37 116 136 0
-37 39 116 0
-37 39 136 0
37 -116 0
37 -136 0
37 -39 0
-39 -116 -136 0
36 -138 -161 0
36 -37 -161 0
36 -37 -138 0
-36 138 161 0
-36 37 161 0
-36 37 138 0
36 -161 0
36 -138 0
36 -37 0
-37 -138 -161 0
35 -140 -162 0
35 -36 -162 0
35 -36 -140 0
-35 140 162 0
-35 36 162 0
-35 36 140 0
35 -162 0
35 -140 0
35 -36 0
-36 -140 -162 0
34 -122 -142 0
34 -35 -122 0
34 -35 -142 0
-34 122 142 0
-34 35 122 0
-34 35 142 0
34 -122 0
34 -142 0
34 -35 0
-35 -122 -142 0
-34 -144 0
34 -144 0
-34 144 0
-33 -130 0
-33 -153 0
33 130 153 0
-32 130 153 0
-32 -130 -153 0
32 -130 153 0
32 130 -153 0
-31 33 0
-31 -155 0
31 -33 155 0
-30 -33 155 0
-30 33 -155 0
30 33 155 0
30 -33 -155 0
-29 31 0
-29 -88 0
29 -31 88 0
-28 -31 88 0
-28 31 -88 0
28 31 88 0
28 -31 -88 0
-27 29 0
-27 -100 0
27 -29 100 0
-26 -29 100 0
-26 29 -100 0
26 29 100 0
26 -29 -100 0
-25 27 0
-25 -164 0
25 -27 164 0
-24 -27 164 0
-24 27 -164 0
24 27 164 0
24 -27 -164 0
-23 25 0
-23 -166 0
23 -25 166 0
-22 -25 166 0
-22 25 -166 0
22 25 166 0
22 -25 -166 0
-21 23 0
-21 -38 0
21 -23 38 0
-20 -23 38 0
-20 23 -38 0
20 23 38 0
20 -23 -38 0
-19 21 0
19 -21 0
-18 -21 0
18 21 0
-17 19 0
17 -19 0
-16 -19 0
16 19 0
-15 17 0
15 -17 0
-14 -17 0
14 17 0
-13 15 0
13 -15 0
-12 -15 0
12 15 0
-11 13 0
11 -13 0
-10 -13 0
10 13 0
-9 11 0
9 -11 0
-8 -11 0
8 11 0
-7 97 0
-7 130 0
7 -97 -130 0
-97 -130 0
97 130 0
6 -90 -153 0
6 -7 -90 0
6 -7 -153 0
-6 90 153 0
-6 7 90 0
-6 7 153 0
-6 90 0
-6 153 0
-6 7 0
7 90 153 0
5 -109 -155 0
5 -6 -109 0
5 -6 -155 0
-5 109 155 0
-5 6 109 0
-5 6 155 0
-5 109 0
-5 155 0
-5 6 0
6 109 155 0
4 -81 -88 0
4 -5 -81 0
4 -5 -88 0
-4 81 88 0
-4 5 81 0
-4 5 88 0
4 -81 0
4 -88 0
4 -5 0
-5 -81 -88 0
3 -51 -100 0
3 -4 -51 0
3 -4 -100 0
-3 51 100 0
-3 4 51 0
-3 4 100 0
3 -51 0
3 -100 0
3 -4 0
-4 -51 -100 0
2 -63 -164 0
2 -3 -63 0
2 -3 -164 0
-2 63 164 0
-2 3 63 0
-2 3 164 0
-2 63 0
-2 164 0
-2 3 0
3 63 164 0
1 -55 -166 0
1 -2 -55 0
1 -2 -166 0
-1 55 166 0
-1 2 55 0
-1 2 166 0
-1 55 0
-1 166 0
-1 2 0
2 55 166 0
-38 -86 0
-1 -86 0
-1 -38 0
1 38 86 0
